3 24 1 10
12 1 13 2 1 7 9 12 1 3 5 11 15 17 2 2 6 17 20 14 20 3 10 11 
11.77 13.51 10.12 9.88 7.45 15.91 13.71 5.35 2.76 13.51 13.25 6.5 0.67 13.71 13.87 12.74 10.82 1.69 7.13 11.45 10.75 13.28 7.37 10.16 
8 8 8 8 8 8 8 8 8 8 8 8 8 8 8 8 8 8 8 8 8 8 8 8 
12.48 5.45 1.82 3.06 8.13 9.06 13.94 0.43 14.84 0.85 3.53 13.06 4.03 13.17 14.46 0.37 5.53 2.99 0.91 10.79 11.44 14.53 6.63 11.45 
1 1 1 1 1 1 1 1 1 1 1 1 1 1 1 1 1 1 1 1 1 1 1 1 
1 1 1 1 1 1 1 1 1 1 1 1 1 1 1 1 1 1 1 1 1 1 1 1 
1 1 1 1 1 1 1 1 1 1 1 1 1 1 1 1 1 1 1 1 1 1 1 1 
0.01 0.01 0.01 0.01 0.01 0.01 0.01 0.01 0.01 0.01 0.01 0.01 0.01 0.01 0.01 0.01 0.01 0.01 0.01 0.01 0.01 0.01 0.01 0.01 
0.02 0.02 0.02 0.02 0.02 0.02 0.02 0.02 0.02 0.02 0.02 0.02 0.02 0.02 0.02 0.02 0.02 0.02 0.02 0.02 0.02 0.02 0.02 0.02 
1 1 1 1 1 1 1 1 1 1 1 1 1 1 1 1 1 1 1 1 1 1 1 1 
